letting n_nurses=25
letting n_days=7
letting n_shift_types=4
letting max_covers=8
letting t_covers=87
letting covers=[6,5,3,0,8,8,4,0,3,8,4,0,4,4,1,0,2,1,1,0,8,3,8,0,3,1,2,0]
letting prefes=[4,3,3,3,1,1,1,1,1,1,1,1,1,1,1,1,1,1,1,1,4,3,3,3,4,3,3,3,1,1,1,1,4,3,4,4,4,3,4,4,4,3,4,4,4,3,4,4,1,1,1,1,1,1,1,1,1,3,3,3,4,1,4,4,4,1,4,4,4,1,4,4,4,1,4,4,1,3,3,3,1,3,3,3,1,3,3,3,4,1,4,4,4,1,4,4,4,1,4,4,4,1,4,4,1,3,3,3,1,3,3,3,4,3,3,3,4,1,4,4,4,1,4,4,4,1,4,4,4,1,4,4,4,3,3,3,4,3,3,3,1,3,3,3,4,3,4,4,4,3,4,4,4,3,4,4,4,3,4,4,1,3,3,3,1,3,3,3,1,3,3,3,4,1,4,4,4,1,4,4,4,1,4,4,4,1,4,4,1,3,3,3,1,3,3,3,1,3,3,3,1,1,1,1,1,1,1,1,1,1,1,1,1,1,1,1,1,3,3,3,1,3,3,3,1,3,3,3,4,1,4,4,4,1,4,4,4,1,4,4,4,1,4,4,1,3,3,3,1,3,3,3,4,3,3,3,4,1,4,4,4,1,4,4,4,1,4,4,4,1,4,4,4,3,3,3,4,3,3,3,1,3,3,3,1,1,1,1,1,1,1,1,1,1,1,1,1,1,1,1,1,3,3,3,1,3,3,3,1,3,3,3,4,3,4,4,4,3,4,4,4,3,4,4,4,3,4,4,1,3,3,3,1,3,3,3,1,3,3,3,4,1,4,4,4,1,4,4,4,1,4,4,4,1,4,4,1,3,3,3,1,3,3,3,1,3,3,3,4,3,4,4,4,3,4,4,4,3,4,4,4,3,4,4,1,3,3,3,1,3,3,3,1,1,1,1,4,3,4,4,4,3,4,4,4,3,4,4,4,3,4,4,1,1,1,1,1,1,1,1,4,3,3,3,1,1,1,1,1,1,1,1,1,1,1,1,1,1,1,1,4,3,3,3,4,3,3,3,4,3,3,3,4,1,4,4,4,1,4,4,4,1,4,4,4,1,4,4,4,3,3,3,4,3,3,3,1,1,1,1,4,1,4,4,4,1,4,4,4,1,4,4,4,1,4,4,1,1,1,1,1,1,1,1,1,3,3,3,4,1,4,4,4,1,4,4,4,1,4,4,4,1,4,4,1,3,3,3,1,3,3,3,1,3,3,3,4,1,4,4,4,1,4,4,4,1,4,4,4,1,4,4,1,3,3,3,1,3,3,3,1,3,3,3,4,1,4,4,4,1,4,4,4,1,4,4,4,1,4,4,1,3,3,3,1,3,3,3,1,1,1,1,4,1,4,4,4,1,4,4,4,1,4,4,4,1,4,4,1,1,1,1,1,1,1,1,1,3,3,3,4,1,4,4,4,1,4,4,4,1,4,4,4,1,4,4,1,3,3,3,1,3,3,3,1,3,3,3,4,1,4,4,4,1,4,4,4,1,4,4,4,1,4,4,1,3,3,3,1,3,3,3,1,1,1,1,1,1,1,1,1,1,1,1,1,1,1,1,1,1,1,1,1,1,1,1,1,1,1,1]
letting ub =  353
